language ESSENCE' 1.0
$ minion Nodes: 10
$ minion TotalTime: 0.001067
$ Savile Row TotalTime: 0.557
letting x_SetExplicit_tuple2 be [4, 4;int(1..2)]
letting x_SetExplicit_tuple1_SetOccurrence be [[false, true, true;int(2..4)], 
[false, true, true;int(2..4)];int(1..2)]
letting x_SetExplicit_tuple3_SetOccurrence be [[false, false, false, true;int(6..9)], 
[false, false, true, false;int(6..9)];int(1..2)]
